proyfinal/src/viki/013/experimentInOfficeAgust.take6.output/707608cd-8b8c-4d92-b030-8a00e1a719b5.als.dat
{'cnf.clauses': '118081',
 'cnf.totvars': '69608',
 'conflict literals': '17',
 'conflicts': '12',
 'decisions': '1460',
 'memused.mb': '15.37',
 'outcome': 'UNSAT',
 'propagations': '35289',
 'restarts': '1',
 'solver.msecs': 39,
 'task.msecs': 97}
