proyfinal/src/viki/013/experimentInOfficeAgust.take6.output/707608cd-8b8c-4d92-b030-8a00e1a719b5.als.out
Reading from standard input... Use '--help' for help.
============================[ Problem Statistics ]=============================
|                                                                             |
|  Number of variables:         69608                                         |
|  Number of clauses:          118081                                         |
|  Parse time:                   0.03 s                                       |
|                                                                             |
============================[ Search Statistics ]==============================
| Conflicts |          ORIGINAL         |          LEARNT          | Progress |
|           |    Vars  Clauses Literals |    Limit  Clauses Lit/Cl |          |
===============================================================================
===============================================================================
restarts              : 1
conflicts             : 12             (306 /sec)
decisions             : 1460           (0.00 % random) (37209 /sec)
propagations          : 35289          (899358 /sec)
conflict literals     : 17             (10.53 % deleted)
Memory used           : 15.37 MB
CPU time              : 0.039238 s

UNSATISFIABLE
